33 33
23
3 3 10 30
3 4 23 29
3 5 30 28
3 6 13 27
3 7 30 21
3 8 30 13
3 9 16 24
3 10 13 17
3 13 30 0
3 14 27 0
3 15 23 14
3 17 13 0
3 24 16 0
3 30 10 0
3 33 7 0
4 3 26 30
4 4 19 29
4 6 26 24
4 10 26 14
4 12 19 17
4 14 23 0
4 17 19 0
7 33 0 0
